language Essence 1.3

letting class be
        function(1 --> 10, 2 --> 6, 3 --> 10, 4 --> 7, 5 --> 9, 6 --> 5, 7 --> 6, 8 --> 8, 9 --> 7, 10 --> 7, 11 --> 1,
                 12 --> 3, 13 --> 9, 14 --> 4, 15 --> 10, 16 --> 2, 17 --> 10, 18 --> 10, 19 --> 10, 20 --> 8, 21 --> 4,
                 22 --> 1, 23 --> 3, 24 --> 9, 25 --> 5, 26 --> 5, 27 --> 8, 28 --> 10, 29 --> 2, 30 --> 9)
letting deck_length be 69
letting deck_width be 86
letting length be
        function(1 --> 69, 2 --> 3, 3 --> 10, 4 --> 17, 5 --> 48, 6 --> 67, 7 --> 4, 8 --> 7, 9 --> 20, 10 --> 1,
                 11 --> 28, 12 --> 55, 13 --> 35, 14 --> 19, 15 --> 18, 16 --> 1, 17 --> 25, 18 --> 39, 19 --> 58,
                 20 --> 55, 21 --> 47, 22 --> 27, 23 --> 63, 24 --> 47, 25 --> 67, 26 --> 24, 27 --> 64, 28 --> 31,
                 29 --> 63, 30 --> 6)
letting n_classes be 10
letting n_containers be 30
letting separation be function()
letting width be
        function(1 --> 24, 2 --> 1, 3 --> 1, 4 --> 1, 5 --> 1, 6 --> 26, 7 --> 1, 8 --> 1, 9 --> 1, 10 --> 2, 11 --> 1,
                 12 --> 1, 13 --> 1, 14 --> 1, 15 --> 1, 16 --> 1, 17 --> 1, 18 --> 1, 19 --> 1, 20 --> 1, 21 --> 1,
                 22 --> 1, 23 --> 2, 24 --> 1, 25 --> 20, 26 --> 1, 27 --> 4, 28 --> 1, 29 --> 1, 30 --> 2)
